Maximize
  1.7591728766357397e-04 Z_16_0_0 + 0.0246166764783265 Z_16_0_1
   + 0.0937306718730753 Z_16_0_2 + 0.00246961833078107 Z_16_0_3
   + 0.00434942170863213 Z_567_1_0 + 0.00598907959900126 Z_567_1_1
   + 0.5077237218753065 Z_567_1_2 + 0.00765814465529015 Z_567_1_3
   + 0.4452224459061895 Z_567_0_0 + 0.0548123560437979 Z_567_0_1
   + 0.0103167209968661 Z_567_0_2 + 0.047313173284272 Z_567_0_3
   + 0.0125752984640907 Z_66_0_0 + 0.00655236053869925 Z_66_0_1
   + 0.0135874346420126 Z_66_0_2 + 0.6471954746162581 Z_66_0_3
   + 0.00357683223235308 Z_98_1_0 + 0.0123037323945613 Z_98_1_1
   + 0.6399734631998074 Z_98_1_2 + 0.00795791351690403 Z_98_1_3
   + 0.4452224459061895 Z_98_0_0 + 0.0548123560437979 Z_98_0_1
   + 0.0103167209968661 Z_98_0_2 + 0.047313173284272 Z_98_0_3
   + 0.0220471159986326 Z_667_0_0 + 0.0310104732542415 Z_667_0_1
   + 0.1453467033773766 Z_667_0_2 + 0.0185005761496788 Z_667_0_3
   + 0.00436510482004896 Z_114_0_0 + 0.0044249550607433 Z_114_0_1
   + 0.0420727786215883 Z_114_0_2 + 0.6803128886506566 Z_114_0_3 + [
   4.4484e-05 Z_16_0_0 * Z_66_0_0 + 4.4484e-05 Z_16_0_1 * Z_66_0_1
   + 4.4484e-05 Z_16_0_2 * Z_66_0_2 + 4.4484e-05 Z_16_0_3 * Z_66_0_3
   + 0.000510204 Z_567_1_0 * Z_66_0_0 + 0.4 Z_567_1_0 * Z_98_1_0
   + 0.000510204 Z_567_1_0 * Z_98_0_0 + 0.4 Z_567_1_0 * Z_114_0_0
   + 0.000510204 Z_567_1_1 * Z_66_0_1 + 0.4 Z_567_1_1 * Z_98_1_1
   + 0.000510204 Z_567_1_1 * Z_98_0_1 + 0.4 Z_567_1_1 * Z_114_0_1
   + 0.000510204 Z_567_1_2 * Z_66_0_2 + 0.4 Z_567_1_2 * Z_98_1_2
   + 0.000510204 Z_567_1_2 * Z_98_0_2 + 0.4 Z_567_1_2 * Z_114_0_2
   + 0.000510204 Z_567_1_3 * Z_66_0_3 + 0.4 Z_567_1_3 * Z_98_1_3
   + 0.000510204 Z_567_1_3 * Z_98_0_3 + 0.4 Z_567_1_3 * Z_114_0_3
   + 0.236311371849435 Z_567_0_0 * Z_66_0_0
   + 0.000510204 Z_567_0_0 * Z_98_1_0 + 0.4 Z_567_0_0 * Z_98_0_0
   + 0.236311371849435 Z_567_0_0 * Z_114_0_0
   + 0.236311371849435 Z_567_0_1 * Z_66_0_1
   + 0.000510204 Z_567_0_1 * Z_98_1_1 + 0.4 Z_567_0_1 * Z_98_0_1
   + 0.236311371849435 Z_567_0_1 * Z_114_0_1
   + 0.236311371849435 Z_567_0_2 * Z_66_0_2
   + 0.000510204 Z_567_0_2 * Z_98_1_2 + 0.4 Z_567_0_2 * Z_98_0_2
   + 0.236311371849435 Z_567_0_2 * Z_114_0_2
   + 0.236311371849435 Z_567_0_3 * Z_66_0_3
   + 0.000510204 Z_567_0_3 * Z_98_1_3 + 0.4 Z_567_0_3 * Z_98_0_3
   + 0.236311371849435 Z_567_0_3 * Z_114_0_3
   + 0.000510204 Z_66_0_0 * Z_98_1_0
   + 0.236311371849435 Z_66_0_0 * Z_98_0_0
   + 0.0588172754103308 Z_66_0_0 * Z_114_0_0
   + 0.000510204 Z_66_0_1 * Z_98_1_1
   + 0.236311371849435 Z_66_0_1 * Z_98_0_1
   + 0.0588172754103308 Z_66_0_1 * Z_114_0_1
   + 0.000510204 Z_66_0_2 * Z_98_1_2
   + 0.236311371849435 Z_66_0_2 * Z_98_0_2
   + 0.0588172754103308 Z_66_0_2 * Z_114_0_2
   + 0.000510204 Z_66_0_3 * Z_98_1_3
   + 0.236311371849435 Z_66_0_3 * Z_98_0_3
   + 0.0588172754103308 Z_66_0_3 * Z_114_0_3 + 0.4 Z_98_1_0 * Z_114_0_0
   + 0.4 Z_98_1_1 * Z_114_0_1 + 0.4 Z_98_1_2 * Z_114_0_2
   + 0.4 Z_98_1_3 * Z_114_0_3 + 0.236311371849435 Z_98_0_0 * Z_114_0_0
   + 0.236311371849435 Z_98_0_1 * Z_114_0_1
   + 0.236311371849435 Z_98_0_2 * Z_114_0_2
   + 0.236311371849435 Z_98_0_3 * Z_114_0_3 ] / 2 
Subject To
 constraint1_160: Z_16_0_0 + Z_16_0_1 + Z_16_0_2 + Z_16_0_3 <= 1
 constraint1_5671: Z_567_1_0 + Z_567_1_1 + Z_567_1_2 + Z_567_1_3 <= 1
 constraint1_5670: Z_567_0_0 + Z_567_0_1 + Z_567_0_2 + Z_567_0_3 <= 1
 constraint1_660: Z_66_0_0 + Z_66_0_1 + Z_66_0_2 + Z_66_0_3 <= 1
 constraint1_981: Z_98_1_0 + Z_98_1_1 + Z_98_1_2 + Z_98_1_3 <= 1
 constraint1_980: Z_98_0_0 + Z_98_0_1 + Z_98_0_2 + Z_98_0_3 <= 1
 constraint1_6670: Z_667_0_0 + Z_667_0_1 + Z_667_0_2 + Z_667_0_3 <= 1
 constraint1_1140: Z_114_0_0 + Z_114_0_1 + Z_114_0_2 + Z_114_0_3 <= 1
 constraint2_160: Z_16_0_0 <= 1
 constraint2_161: Z_16_0_1 <= 1
 constraint2_162: Z_16_0_2 <= 1
 constraint2_163: Z_16_0_3 <= 1
 constraint2_5670: Z_567_1_0 + Z_567_0_0 <= 1
 constraint2_5671: Z_567_1_1 + Z_567_0_1 <= 1
 constraint2_5672: Z_567_1_2 + Z_567_0_2 <= 1
 constraint2_5673: Z_567_1_3 + Z_567_0_3 <= 1
 constraint2_660: Z_66_0_0 <= 1
 constraint2_661: Z_66_0_1 <= 1
 constraint2_662: Z_66_0_2 <= 1
 constraint2_663: Z_66_0_3 <= 1
 constraint2_980: Z_98_1_0 + Z_98_0_0 <= 1
 constraint2_981: Z_98_1_1 + Z_98_0_1 <= 1
 constraint2_982: Z_98_1_2 + Z_98_0_2 <= 1
 constraint2_983: Z_98_1_3 + Z_98_0_3 <= 1
 constraint2_6670: Z_667_0_0 <= 1
 constraint2_6671: Z_667_0_1 <= 1
 constraint2_6672: Z_667_0_2 <= 1
 constraint2_6673: Z_667_0_3 <= 1
 constraint2_1140: Z_114_0_0 <= 1
 constraint2_1141: Z_114_0_1 <= 1
 constraint2_1142: Z_114_0_2 <= 1
 constraint2_1143: Z_114_0_3 <= 1
Bounds
Binaries
 Z_16_0_0 Z_16_0_1 Z_16_0_2 Z_16_0_3 Z_567_1_0 Z_567_1_1 Z_567_1_2
 Z_567_1_3 Z_567_0_0 Z_567_0_1 Z_567_0_2 Z_567_0_3 Z_66_0_0 Z_66_0_1
 Z_66_0_2 Z_66_0_3 Z_98_1_0 Z_98_1_1 Z_98_1_2 Z_98_1_3 Z_98_0_0 Z_98_0_1
 Z_98_0_2 Z_98_0_3 Z_667_0_0 Z_667_0_1 Z_667_0_2 Z_667_0_3 Z_114_0_0
 Z_114_0_1 Z_114_0_2 Z_114_0_3
End
